qbf_easy_train/easy_89_UNSAT.qdimacs
p cnf 33 93
a 24 13 31 0
e 1 2 3 4 5 6 7 8 9 10 11 12 14 15 16 17 18 19 20 21 22 23 25 26 27 28 29 30 32 33 0
3 1 0
3 2 0
-1 -2 -3 0
-4 -2 -5 0
4 2 -5 0
-4 2 5 0
4 -2 5 0
3 5 -6 0
-3 -5 -6 0
3 -5 6 0
-3 5 6 0
-4 1 -8 0
4 -1 -8 0
-4 -1 8 0
4 1 8 0
7 -8 -9 0
-7 8 -9 0
7 8 9 0
-7 -8 9 0
10 -6 0
10 -9 0
6 9 -10 0
-1 -11 -12 0
1 11 -12 0
-1 11 12 0
1 -11 12 0
1 -13 -15 0
-1 13 -15 0
1 13 15 0
-1 -13 15 0
16 -14 0
16 15 0
14 -15 -16 0
-17 -16 0
-17 13 0
16 -13 17 0
-18 13 0
-18 -17 0
-13 17 18 0
-19 18 0
-19 -11 0
-18 11 19 0
-20 12 0
-20 -19 0
-12 19 20 0
-21 -4 0
-21 13 0
4 -13 21 0
-16 21 -22 0
16 -21 -22 0
-16 -21 22 0
16 21 22 0
23 21 0
23 2 0
-21 -2 -23 0
-24 16 0
-24 -23 0
-16 23 24 0
-25 22 0
-25 24 0
-22 -24 25 0
-20 25 -26 0
20 -25 -26 0
-20 -25 26 0
20 25 26 0
-27 -1 0
-27 -14 0
1 14 27 0
-28 17 0
-28 -21 0
-17 21 28 0
-28 -29 -30 0
28 29 -30 0
-28 29 30 0
28 -29 30 0
31 27 0
31 30 0
-27 -30 -31 0
32 26 0
32 31 0
-26 -31 -32 0
33 10 0
33 -32 0
-10 32 -33 0
27 14 -32 -19 33 -22 0
-1 -2 -11 24 0
-14 -30 0
-13 32 -31 -4 0
20 24 33 0
-27 14 25 22 0
20 32 -7 0
17 31 14 -25 11 4 -10 0
33 0
