sat_easy_train/easy_89_UNSAT.dimacs
p cnf 149 507
4 -2 0
4 3 0
2 -3 -4 0
1 -4 -5 0
-1 4 -5 0
1 4 5 0
-1 -4 5 0
8 -6 0
8 7 0
6 -7 -8 0
11 9 0
11 10 0
-9 -10 -11 0
12 -8 0
12 -11 0
8 11 -12 0
-2 13 -14 0
2 -13 -14 0
-2 -13 14 0
2 13 14 0
15 12 0
15 14 0
-12 -14 -15 0
16 -5 0
16 15 0
5 -15 -16 0
19 -6 0
19 5 0
6 -5 -19 0
20 8 0
20 19 0
-8 -19 -20 0
18 20 -21 0
-18 -20 -21 0
18 -20 21 0
-18 20 21 0
22 17 0
22 21 0
-17 -21 -22 0
-16 22 -23 0
16 -22 -23 0
-16 -22 23 0
16 22 23 0
-24 -4 0
-24 -8 0
4 8 24 0
25 -23 0
25 -24 0
23 24 -25 0
-26 -17 0
-26 -18 0
17 18 26 0
28 9 0
28 27 0
-9 -27 -28 0
-30 29 0
-30 -9 0
-29 9 30 0
-31 30 0
-31 -29 0
-30 29 31 0
-28 31 -32 0
28 -31 -32 0
-28 -31 32 0
28 31 32 0
-33 -13 0
-33 -3 0
13 3 33 0
-34 32 0
-34 -33 0
-32 33 34 0
-35 26 0
-35 34 0
-26 -34 35 0
-36 25 0
-36 35 0
-25 -35 36 0
-37 -27 0
-37 33 0
27 -33 37 0
38 14 0
38 -1 0
-14 1 -38 0
-39 -38 0
-39 -9 0
38 9 39 0
-37 -39 -40 0
37 39 -40 0
-37 39 40 0
37 -39 40 0
-42 -40 0
-42 41 0
40 -41 42 0
44 -43 0
44 -3 0
43 3 -44 0
-44 37 -45 0
44 -37 -45 0
-44 -37 45 0
44 37 45 0
46 3 0
46 -2 0
-3 2 -46 0
2 28 -47 0
-2 -28 -47 0
2 -28 47 0
-2 28 47 0
47 -44 -48 0
-47 44 -48 0
47 44 48 0
-47 -44 48 0
-4 -1 -49 0
4 1 -49 0
-4 1 49 0
4 -1 49 0
50 7 0
50 49 0
-7 -49 -50 0
48 -50 -51 0
-48 50 -51 0
48 50 51 0
-48 -50 51 0
-52 46 0
-52 -51 0
-46 51 52 0
53 -13 0
53 -37 0
13 37 -53 0
-52 53 -54 0
52 -53 -54 0
-52 -53 54 0
52 53 54 0
55 -45 0
55 -54 0
45 54 -55 0
-56 57 -58 0
56 -57 -58 0
-56 -57 58 0
56 57 58 0
59 58 0
59 13 0
-58 -13 -59 0
19 59 -60 0
-19 -59 -60 0
19 -59 60 0
-19 59 60 0
-61 -55 0
-61 -60 0
55 60 61 0
-62 14 0
-62 17 0
-14 -17 62 0
63 50 0
63 -62 0
-50 62 -63 0
-64 9 0
-64 63 0
-9 -63 64 0
-11 64 -65 0
11 -64 -65 0
-11 -64 65 0
11 64 65 0
-66 61 0
-66 65 0
-61 -65 66 0
67 33 0
67 -1 0
-33 1 -67 0
68 -9 0
68 67 0
9 -67 -68 0
-69 -47 0
-69 -9 0
47 9 69 0
70 6 0
70 -13 0
-6 13 -70 0
-71 70 0
-71 -28 0
-70 28 71 0
69 71 -72 0
-69 -71 -72 0
69 -71 72 0
-69 71 72 0
73 68 0
73 72 0
-68 -72 -73 0
74 -66 0
74 -73 0
66 73 -74 0
-5 29 -75 0
5 -29 -75 0
-5 -29 75 0
5 29 75 0
-76 -5 0
-76 75 0
5 -75 76 0
-74 76 -77 0
74 -76 -77 0
-74 -76 77 0
74 76 77 0
-78 -42 0
-78 77 0
42 -77 78 0
79 5 0
79 -4 0
-5 4 -79 0
9 39 -80 0
-9 -39 -80 0
9 -39 80 0
-9 39 80 0
-81 -79 0
-81 -80 0
79 80 81 0
-82 -78 0
-82 81 0
78 -81 82 0
31 -47 -83 0
-31 47 -83 0
31 47 83 0
-31 -47 83 0
-84 -83 0
-84 -49 0
83 49 84 0
85 67 0
85 7 0
-67 -7 -85 0
32 85 -86 0
-32 -85 -86 0
32 -85 86 0
-32 85 86 0
-84 -86 -87 0
84 86 -87 0
-84 86 87 0
84 -86 87 0
88 27 0
88 -87 0
-27 87 -88 0
89 -4 0
89 9 0
4 -9 -89 0
90 47 0
90 3 0
-47 -3 -90 0
91 -44 0
91 1 0
44 -1 -91 0
-92 90 0
-92 91 0
-90 -91 92 0
-93 -89 0
-93 92 0
89 -92 93 0
88 93 -94 0
-88 -93 -94 0
88 -93 94 0
-88 93 94 0
95 -82 0
95 94 0
82 -94 -95 0
-96 -36 0
-96 95 0
36 -95 96 0
-97 40 0
-97 56 0
-40 -56 97 0
-98 -97 0
-98 2 0
97 -2 98 0
7 -27 -99 0
-7 27 -99 0
7 27 99 0
-7 -27 99 0
7 47 -100 0
-7 -47 -100 0
7 -47 100 0
-7 47 100 0
-101 57 0
-101 -100 0
-57 100 101 0
102 -50 0
102 -101 0
50 101 -102 0
103 99 0
103 102 0
-99 -102 -103 0
-104 -98 0
-104 103 0
98 -103 104 0
-105 -6 0
-105 -10 0
6 10 105 0
106 105 0
106 -10 0
-105 10 -106 0
107 75 0
107 49 0
-75 -49 -107 0
-108 85 0
-108 -19 0
-85 19 108 0
-85 -57 -109 0
85 57 -109 0
-85 57 109 0
85 -57 109 0
-108 109 -110 0
108 -109 -110 0
-108 -109 110 0
108 109 110 0
111 -2 0
111 62 0
2 -62 -111 0
111 -30 -112 0
-111 30 -112 0
111 30 112 0
-111 -30 112 0
-110 112 -113 0
110 -112 -113 0
-110 -112 113 0
110 112 113 0
-114 107 0
-114 113 0
-107 -113 114 0
-106 114 -115 0
106 -114 -115 0
-106 -114 115 0
106 114 115 0
-116 10 0
-116 30 0
-10 -30 116 0
-117 29 0
-117 -116 0
-29 116 117 0
1 -117 -118 0
-1 117 -118 0
1 117 118 0
-1 -117 118 0
15 -118 -119 0
-15 118 -119 0
15 118 119 0
-15 -118 119 0
-115 -119 -120 0
115 119 -120 0
-115 119 120 0
115 -119 120 0
121 -28 0
121 86 0
28 -86 -121 0
122 5 0
122 -121 0
-5 121 -122 0
-123 100 0
-123 6 0
-100 -6 123 0
124 27 0
124 15 0
-27 -15 -124 0
123 124 -125 0
-123 -124 -125 0
123 -124 125 0
-123 124 125 0
126 83 0
126 -123 0
-83 123 -126 0
-126 -64 -127 0
126 64 -127 0
-126 64 127 0
126 -64 127 0
33 -127 -128 0
-33 127 -128 0
33 127 128 0
-33 -127 128 0
-129 -125 0
-129 128 0
125 -128 129 0
130 122 0
130 -129 0
-122 129 -130 0
120 -130 -131 0
-120 130 -131 0
120 130 131 0
-120 -130 131 0
132 -3 0
132 86 0
3 -86 -132 0
133 -32 0
133 28 0
32 -28 -133 0
134 85 0
134 133 0
-85 -133 -134 0
-4 -134 -135 0
4 134 -135 0
-4 134 135 0
4 -134 135 0
136 132 0
136 -135 0
-132 135 -136 0
-137 57 0
-137 -101 0
-57 101 137 0
-7 -10 -138 0
7 10 -138 0
-7 10 138 0
7 -10 138 0
139 -137 0
139 -138 0
137 138 -139 0
-140 -136 0
-140 139 0
136 -139 140 0
-131 140 -141 0
131 -140 -141 0
-131 -140 141 0
131 140 141 0
142 8 0
142 -49 0
-8 49 -142 0
-143 134 0
-143 31 0
-134 -31 143 0
-144 142 0
-144 143 0
-142 -143 144 0
-29 50 -145 0
29 -50 -145 0
-29 -50 145 0
29 50 145 0
-146 -144 0
-146 -145 0
144 145 146 0
-147 141 0
-147 146 0
-141 -146 147 0
-148 -104 0
-148 147 0
104 -147 148 0
149 96 0
149 -148 0
-96 148 -149 0
-107 -130 0
127 -128 28 -126 93 66 0
90 29 -84 147 -66 86 0
87 23 51 58 -86 136 0
55 -42 0
-138 9 6 44 0
85 76 -74 -27 122 0
-146 -74 -53 0
96 -59 -108 0
-121 -71 -70 119 0
-125 41 -39 0
-10 99 132 0
21 -142 -61 0
121 -99 0
-94 55 98 -122 -116 0
16 -81 -127 -99 -148 22 0
-23 -1 138 -43 0
7 29 -11 0
70 87 77 -119 84 0
-41 17 -106 0
-28 117 62 -125 -52 72 0
49 -26 0
-105 -114 44 -81 108 0
122 13 -119 -137 -85 0
125 135 0
35 -116 -148 0
-127 123 -70 -86 62 -65 0
84 -86 0
-75 -148 54 113 48 0
-129 93 -58 70 17 0
85 112 100 10 -27 -80 0
-50 67 76 -40 101 0
145 -27 23 -127 -51 16 0
32 59 0
142 -54 139 97 -73 0
-41 66 43 -34 98 -111 0
-14 130 -103 96 72 0
-80 -140 0
114 -11 0
74 129 26 69 108 0
41 -125 0
86 -38 146 83 -134 0
-2 22 -140 36 14 138 0
124 -86 -28 0
-116 15 -129 -71 145 90 0
-118 149 -145 4 0
-72 -51 -53 0
141 7 0
-130 -25 -3 0
-112 -59 79 0
24 57 0
66 -27 -2 -79 0
-65 89 112 -66 67 27 0
61 -27 -73 0
48 -11 121 -77 0
-100 52 -120 3 90 0
92 -121 0
-23 126 -114 17 0
56 -74 -29 -145 9 0
78 -136 -62 -60 0
-57 75 0
-11 144 29 146 -5 -35 0
-144 13 34 25 -89 0
-126 -73 88 -14 0
73 19 28 58 140 -24 0
87 99 -24 -131 -89 0
149 0
